Test: fpga10_9_sat.cnf
Options: 
WARNING: for repeatability, setting FPU to use double precision
============================[ Problem Statistics ]=============================
|                                                                             |
|  Number of symmetries:           23                                         |
|  Number of invertingSyms:         0                                         |
|  Number of variables:           135                                         |
|  Number of clauses:             549                                         |
|  Parse time:                   0.00 s                                       |
|                                                                             |
============================[ Search Statistics ]==============================
| Conflicts |          ORIGINAL         |          LEARNT          | Progress |
|           |    Vars  Clauses Literals |    Limit  Clauses Lit/Cl |          |
===============================================================================
|       100 |     135      549     1485 |      201      170     30 |  0.006 % |
===============================================================================
restarts              : 2
conflicts             : 129            (32250 /sec)
symconflicts          : 25             (6250 /sec)
decisions             : 316            (0.00 % random) (79000 /sec)
propagations          : 2670           (667500 /sec)
sympropagations       : 229            (57250 /sec)
conflict literals     : 3257           (1.54 % deleted)
literals     : 3257           (1.54 % deleted)

HEURISTIC USAGES
random                : 0           
activity w/ lookahead : 0           
activity no lookahead : 0           
original sp           : 315         
sym count             : 0           

Memory used           : 5.00 MB
CPU time              : 0.004 s

SATISFIABLE
